50  100
18	32
8	84
64	32
46	46
84	37
99	74
59	50
15	70
33	32
80	89
65	58
72	72
36	0
70	51
75	35
60	64
23	80
49	3
70	33
7	48
28	78
69	15
4	24
28	66
99	11
58	74
36	17
5	69
58	40
60	33
0	52
17	23
17	52
66	95
16	80
92	57
43	78
25	47
16	99
20	61
66	72
64	65
84	47
68	79
36	23
66	63
21	24
29	20
34	97
75	68